Optimal - objective value 143.00000000
      0 C                       143                       0
      2 x_0_1                    30                       0
      3 x_0_2                    34                       0
      4 x_0_3                    44                       0
      5 x_0_4                    89                       0
      6 x_0_5                    98                       0
      8 x_1_1       8.00000000001067                       0
      9 x_1_2                    17                       0
     10 x_1_3                    29                       0
     11 x_1_4                    60                       0
     12 x_1_5                    61                       0
     14 x_2_1                     8                       1
     15 x_2_2                    17                       0
     16 x_2_3                    23                       0
     17 x_2_4                    29                       0
     18 x_2_5                    44                       0
     19 x_3_0                    69                       0
     20 x_3_1                    90                       0
     21 x_3_2                   106                       0
     22 x_3_3                   114                       0
     23 x_3_4                   122                       0
     24 x_3_5                   131                       0
     25 x_4_0       1.99999999999513                       0
     26 x_4_1       87.9999999999999                       0
     27 x_4_2       95.9999999999999                       0
     28 x_4_3                   105                       0
     29 x_4_4                   129                       0
     30 x_4_5                   139                       0
     31 x_5_0                    28                       0
     32 x_5_1                    78                       0
     33 x_5_2                    87                       0
     34 x_5_3                   114                       0
     35 x_5_4                   137                       0
     36 x_5_5                   141                       0
     37 x_6_0       15.0000000000107                       0
     38 x_6_1       16.0000000000107                       0
     39 x_6_2                    26                       0
     40 x_6_3                    69                       0
     41 x_6_4                    90                       0
     42 x_6_5                   114                       0
     44 x_7_1       0.999999999995157                       0
     45 x_7_2                     2                       0
     46 x_7_3                     6                       0
     47 x_7_4                    28                       0
     48 x_7_5                   141                       0
     49 y_0_1_0                   1                       0
     50 y_0_1_1                   1                       0
     54 y_0_1_5                   1                       0
     55 y_0_2_0                   1                       0
     58 y_0_2_3                   1                       0
     59 y_0_2_4                   1                       0
     60 y_0_2_5                   1                       0
     61 y_0_3_0                   1                       0
     67 y_0_4_0                   1                       0
     71 y_0_4_4                   1                       0
     73 y_0_5_0                   1                       0
     74 y_0_5_1                   1                       0
     78 y_0_5_5                   1                       0
     79 y_0_6_0                   1                       0
     82 y_0_6_3                   1                       0
     84 y_0_6_5                   1                       0
     85 y_0_7_0                   1                       0
     86 y_0_7_1                   1                       0
     88 y_0_7_3                   1                       0
     89 y_0_7_4                   1                       0
     90 y_0_7_5                   1                       0
     91 y_1_2_0                   1                     550
     93 y_1_2_2                   1                       0
     94 y_1_2_3                   1                       0
     95 y_1_2_4                   1                       0
     96 y_1_2_5                   1                       0
    107 y_1_4_4                   1                       0
    118 y_1_6_3                   1                       0
    121 y_1_7_0                   1                       0
    124 y_1_7_3                   1                       0
    125 y_1_7_4                   1                       0
    137 y_2_4_4                   1                       0
    140 y_2_5_1                   1                       0
    148 y_2_6_3                   1                       0
    151 y_2_7_0                   1                       0
    152 y_2_7_1                   1                       0
    154 y_2_7_3                   1                       0
    155 y_2_7_4                   1                       0
    160 y_3_4_3                   1                       0
    161 y_3_4_4                   1                       0
    164 y_3_5_1                   1                       0
    168 y_3_5_5                   1                       0
    169 y_3_6_0                   1                       0
    170 y_3_6_1                   1                     550
    171 y_3_6_2                   1                       0
    172 y_3_6_3                   1                       0
    174 y_3_6_5                   1                       0
    175 y_3_7_0                   1                       0
    176 y_3_7_1                   1                       0
    178 y_3_7_3                   1                       0
    179 y_3_7_4                   1                       0
    180 y_3_7_5                   1                       0
    181 y_4_5_0                   1                       0
    182 y_4_5_1                   1                       0
    186 y_4_5_5                   1                       0
    187 y_4_6_0                   1                       0
    188 y_4_6_1                   1                       0
    189 y_4_6_2                   1                       0
    190 y_4_6_3                   1                       0
    192 y_4_6_5                   1                       0
    193 y_4_7_0                   1                       0
    194 y_4_7_1                   1                       0
    196 y_4_7_3                   1                       0
    197 y_4_7_4                   1                       0
    198 y_4_7_5                   1                       0
    199 y_5_6_0                   1                       0
    201 y_5_6_2                   1                       0
    202 y_5_6_3                   1                       0
    203 y_5_6_4                   1                       0
    204 y_5_6_5                   1                       0
    205 y_5_7_0                   1                       0
    206 y_5_7_1                   1                       0
    208 y_5_7_3                   1                       0
    209 y_5_7_4                   1                       0
    210 y_5_7_5                   1                       0
    211 y_6_7_0                   1                       0
    212 y_6_7_1                   1                       0
    214 y_6_7_3                   1                       0
    215 y_6_7_4                   1                       0
